webassembly/ejemplos_results/folder6_json_61.txt
value = 6;
fgas = [1, 1, 1, 1, 1, 1];
fsize = [1, 1, 1, 1, 1, 1];
states = 
[|    in_0,     '.', '.', '.', '.', '.', '.'
 |    in_0,     '.', '.', '.', '.', '.', '.'
 |  's(1)', local_0, '.', '.', '.', '.', '.'
 | local_0,     '.', '.', '.', '.', '.', '.'
 |  's(0)',    in_0, '.', '.', '.', '.', '.'
 |  's(0)',    in_0, '.', '.', '.', '.', '.'
 |  's(1)',     '.', '.', '.', '.', '.', '.'
 |];
register_states = 
[| local_0, local_1, '.', '.', '.', '.', '.'
 |    in_0, local_1, '.', '.', '.', '.', '.'
 |    in_0, local_1, '.', '.', '.', '.', '.'
 |    in_0,  's(1)', '.', '.', '.', '.', '.'
 |    in_0,  's(1)', '.', '.', '.', '.', '.'
 |    in_0,  's(0)', '.', '.', '.', '.', '.'
 |    in_0,  's(0)', '.', '.', '.', '.', '.'
 |];
program = [TEE(TEE1), O('i32.add_0'), S(SET2), O('i32.load8_s_1'), TEE(TEE2), O('i32.add_0')];
% time elapsed: 0.06 s
----------
value = 5;
fgas = [1, 1, 1, 1, 1, 0];
fsize = [1, 1, 1, 1, 1, 1];
states = 
[|    in_0,     '.', '.', '.', '.', '.', '.'
 |    in_0,     '.', '.', '.', '.', '.', '.'
 |  's(1)', local_0, '.', '.', '.', '.', '.'
 | local_0,     '.', '.', '.', '.', '.', '.'
 |  's(0)',  's(1)', '.', '.', '.', '.', '.'
 |  's(1)',     '.', '.', '.', '.', '.', '.'
 |  's(1)',     '.', '.', '.', '.', '.', '.'
 |];
register_states = 
[| local_0, local_1, '.', '.', '.', '.', '.'
 |    in_0, local_1, '.', '.', '.', '.', '.'
 |    in_0, local_1, '.', '.', '.', '.', '.'
 |    in_0,  's(1)', '.', '.', '.', '.', '.'
 |    in_0,  's(1)', '.', '.', '.', '.', '.'
 |    in_0,  's(0)', '.', '.', '.', '.', '.'
 |    in_0,  's(0)', '.', '.', '.', '.', '.'
 |];
program = [TEE(TEE1), O('i32.add_0'), S(SET2), O('i32.load8_s_1'), S(SET2), NOP];
% time elapsed: 0.06 s
----------
==========
% time elapsed: 0.06 s
% [value > 4]
